52 88 7 63 90 32 10 
31 62 11 64 49 46 17 60 89 
83 45 86 16 61 85 91 93 96 
82 19 36 47 48 
12 29 24 80 68 
21 73 72 56 25 55 54 
95 92 42 15 57 41 22 74 58 
27 69 30 71 65 66 20 70 1 
53 40 87 97 13 
59 98 44 38 14 43 100 37 
51 9 35 34 77 
2 75 23 67 39 4 26 
18 6 94 
99 5 84 8 
28 76 33 81 78 79 3 50 
